db/inputs/179176304206812173024478109664417346.smt2
(set-logic QF_FP)
(declare-const x0 (_ FloatingPoint 11 53))
(declare-const x1 (_ FloatingPoint 11 53))
(declare-const x2 (_ FloatingPoint 11 53))
(declare-const x3 (_ FloatingPoint 11 53))
(declare-const x4 (_ FloatingPoint 11 53))
(declare-const x5 (_ FloatingPoint 11 53))
(declare-const x6 (_ FloatingPoint 11 53))
(declare-const x7 (_ FloatingPoint 11 53))
(declare-const x8 (_ FloatingPoint 11 53))
(declare-const x9 (_ FloatingPoint 11 53))
(assert (fp.geq (fp.add RNE x0 x2) (fp.div RNE x4 x7)))
(assert (fp.geq (fp.neg x1) (fp.neg x1)))
(assert (fp.eq (fp.neg x7) (fp.sub RNE x3 x4)))
(assert (fp.eq (fp.mul RNE x9 x2) (fp.sub RNE x3 x1)))
(assert (fp.geq (fp.sub RNE x5 x7) (fp.div RNE x7 x7)))
(assert (fp.lt (fp.add RNE x0 x3) (fp.mul RNE x5 x9)))
(assert (fp.gt (fp.add RNE x9 x9) (fp.div RNE x6 x2)))
(assert (fp.geq (fp.neg x8) (fp.mul RNE x8 x2)))
(assert (fp.lt (fp.div RNE x5 x6) (fp.add RNE x2 x0)))
(assert (fp.leq (fp.div RNE x1 x7) (fp.mul RNE x9 x0)))
(assert (fp.leq (fp.mul RNE x9 x3) (fp.mul RNE x4 x3)))
(assert (fp.eq (fp.sub RNE x5 x4) (fp.neg x0)))
(assert (fp.gt (fp.div RNE x4 x8) (fp.neg x5)))
(assert (fp.eq (fp.neg x0) (fp.neg x0)))
(assert (fp.eq (fp.mul RNE x7 x3) (fp.add RNE x7 x9)))
(assert (fp.eq (fp.sub RNE x9 x6) (fp.sub RNE x2 x6)))
(assert (fp.gt (fp.div RNE x3 x1) (fp.mul RNE x3 x2)))
(assert (fp.leq (fp.sub RNE x2 x3) (fp.mul RNE x9 x6)))
(check-sat)
