db/data/179176304206812173024478109664417346.z3.out
-------------------
2500.176079936
